(set-logic QF_LIA)
(declare-fun x0 () Int)
(declare-fun x1 () Int)
(declare-fun x2 () Int)
(declare-fun x3 () Int)
(declare-fun x4 () Int)
(declare-fun x5 () Int)
(declare-fun x6 () Int)
(declare-fun x7 () Int)
(declare-fun x8 () Int)
(declare-fun x9 () Int)
(declare-fun A0 () Bool)
(declare-fun A1 () Bool)
(declare-fun A2 () Bool)
(declare-fun A3 () Bool)
(declare-fun A4 () Bool)
(declare-fun A5 () Bool)
(declare-fun A6 () Bool)
(declare-fun A7 () Bool)
(declare-fun A8 () Bool)
(declare-fun A9 () Bool)
(assert (let ((.def_0 (not A8))) (let ((.def_1 (or .def_0 A8))) (let ((.def_2 (* 1 x3))) (let ((.def_3 (< .def_2 (- 1)))) (let ((.def_4 (* (- 1) x1))) (let ((.def_5 (* (- 1) x9))) (let ((.def_6 (+ .def_5 .def_4))) (let ((.def_7 (< .def_6 1))) (let ((.def_8 (or .def_7 .def_3))) (let ((.def_9 (= .def_8 .def_1))) (let ((.def_10 (* 1 x8))) (let ((.def_11 (+ .def_5 .def_10))) (let ((.def_12 (< .def_11 (- 1)))) (let ((.def_13 (not .def_12))) (let ((.def_14 (not A2))) (let ((.def_15 (and .def_14 .def_13))) (let ((.def_16 (not .def_15))) (let ((.def_17 (* 1 x9))) (let ((.def_18 (< .def_17 1))) (let ((.def_19 (= A2 .def_18))) (let ((.def_20 (or .def_19 .def_16))) (let ((.def_21 (not .def_20))) (let ((.def_22 (and .def_21 .def_9))) (let ((.def_23 (+ .def_10 .def_4))) (let ((.def_24 (< .def_23 (- 1)))) (let ((.def_25 (not .def_24))) (let ((.def_26 (and A6 .def_25))) (let ((.def_27 (* 1 x4))) (let ((.def_28 (< .def_27 (- 1)))) (let ((.def_29 (or .def_28 A3))) (let ((.def_30 (or .def_29 .def_26))) (let ((.def_31 (not .def_28))) (let ((.def_32 (and A0 .def_31))) (let ((.def_33 (* 1 x0))) (let ((.def_34 (+ .def_4 .def_33))) (let ((.def_35 (< .def_34 1))) (let ((.def_36 (not .def_35))) (let ((.def_37 (< .def_10 (- 1)))) (let ((.def_38 (or .def_37 .def_36))) (let ((.def_39 (or .def_38 .def_32))) (let ((.def_40 (or .def_39 .def_30))) (let ((.def_41 (or .def_40 .def_22))) (let ((.def_42 (not .def_41))) (let ((.def_43 (* (- 1) x8))) (let ((.def_44 (< .def_43 1))) (let ((.def_45 (not .def_44))) (let ((.def_46 (* (- 1) x6))) (let ((.def_47 (+ .def_17 .def_46))) (let ((.def_48 (< .def_47 1))) (let ((.def_49 (not .def_48))) (let ((.def_50 (or .def_49 .def_45))) (let ((.def_51 (not .def_50))) (let ((.def_52 (+ .def_27 .def_5))) (let ((.def_53 (< .def_52 1))) (let ((.def_54 (not .def_53))) (let ((.def_55 (* 1 x7))) (let ((.def_56 (+ .def_43 .def_55))) (let ((.def_57 (< .def_56 1))) (let ((.def_58 (not .def_57))) (let ((.def_59 (and .def_58 .def_54))) (let ((.def_60 (or .def_59 .def_51))) (let ((.def_61 (not .def_60))) (let ((.def_62 (* (- 1) x2))) (let ((.def_63 (< .def_62 (- 1)))) (let ((.def_64 (* (- 1) x7))) (let ((.def_65 (< .def_64 1))) (let ((.def_66 (and .def_65 .def_63))) (let ((.def_67 (not .def_66))) (let ((.def_68 (< .def_27 1))) (let ((.def_69 (not .def_68))) (let ((.def_70 (+ .def_10 .def_5))) (let ((.def_71 (< .def_70 (- 1)))) (let ((.def_72 (not .def_71))) (let ((.def_73 (= .def_72 .def_69))) (let ((.def_74 (and .def_73 .def_67))) (let ((.def_75 (not .def_74))) (let ((.def_76 (= .def_75 .def_61))) (let ((.def_77 (not .def_76))) (let ((.def_78 (* 1 x1))) (let ((.def_79 (< .def_78 (- 1)))) (let ((.def_80 (or .def_79 A6))) (let ((.def_81 (not .def_80))) (let ((.def_82 (* 1 x2))) (let ((.def_83 (+ .def_78 .def_82))) (let ((.def_84 (< .def_83 (- 1)))) (let ((.def_85 (not .def_84))) (let ((.def_86 (* 1 x5))) (let ((.def_87 (< .def_86 (- 1)))) (let ((.def_88 (or .def_87 .def_85))) (let ((.def_89 (or .def_88 .def_81))) (let ((.def_90 (not .def_89))) (let ((.def_91 (* 1 x6))) (let ((.def_92 (+ .def_91 .def_5))) (let ((.def_93 (< .def_92 (- 1)))) (let ((.def_94 (not .def_93))) (let ((.def_95 (or .def_94 A0))) (let ((.def_96 (not .def_95))) (let ((.def_97 (not A1))) (let ((.def_98 (= .def_97 .def_14))) (let ((.def_99 (and .def_98 .def_96))) (let ((.def_100 (and .def_99 .def_90))) (let ((.def_101 (not .def_100))) (let ((.def_102 (or .def_101 .def_77))) (let ((.def_103 (not .def_102))) (let ((.def_104 (and .def_103 .def_42))) (let ((.def_105 (not A6))) (let ((.def_106 (or A3 .def_105))) (let ((.def_107 (+ .def_82 .def_27))) (let ((.def_108 (< .def_107 (- 1)))) (let ((.def_109 (not .def_108))) (let ((.def_110 (and A4 .def_109))) (let ((.def_111 (not .def_110))) (let ((.def_112 (or .def_111 .def_106))) (let ((.def_113 (or A8 A9))) (let ((.def_114 (not .def_113))) (let ((.def_115 (* (- 1) x5))) (let ((.def_116 (+ .def_46 .def_115))) (let ((.def_117 (< .def_116 1))) (let ((.def_118 (and A7 .def_117))) (let ((.def_119 (not .def_118))) (let ((.def_120 (and .def_119 .def_114))) (let ((.def_121 (and .def_120 .def_112))) (let ((.def_122 (+ .def_2 .def_91))) (let ((.def_123 (< .def_122 1))) (let ((.def_124 (not .def_123))) (let ((.def_125 (* (- 1) x4))) (let ((.def_126 (< .def_125 1))) (let ((.def_127 (and .def_126 .def_124))) (let ((.def_128 (not A0))) (let ((.def_129 (* (- 1) x3))) (let ((.def_130 (< .def_129 1))) (let ((.def_131 (and .def_130 .def_128))) (let ((.def_132 (not .def_131))) (let ((.def_133 (and .def_132 .def_127))) (let ((.def_134 (not .def_133))) (let ((.def_135 (+ .def_91 .def_43))) (let ((.def_136 (< .def_135 (- 1)))) (let ((.def_137 (+ .def_91 .def_62))) (let ((.def_138 (< .def_137 1))) (let ((.def_139 (or .def_138 .def_136))) (let ((.def_140 (not .def_139))) (let ((.def_141 (or .def_130 A3))) (let ((.def_142 (and .def_141 .def_140))) (let ((.def_143 (and .def_142 .def_134))) (let ((.def_144 (not .def_143))) (let ((.def_145 (or .def_144 .def_121))) (let ((.def_146 (not A4))) (let ((.def_147 (= .def_146 A2))) (let ((.def_148 (< .def_33 (- 1)))) (let ((.def_149 (= .def_105 .def_148))) (let ((.def_150 (not .def_149))) (let ((.def_151 (or .def_150 .def_147))) (let ((.def_152 (not A9))) (let ((.def_153 (< .def_64 (- 1)))) (let ((.def_154 (and .def_153 .def_152))) (let ((.def_155 (not .def_154))) (let ((.def_156 (* (- 1) x0))) (let ((.def_157 (+ .def_17 .def_156))) (let ((.def_158 (< .def_157 (- 1)))) (let ((.def_159 (= .def_158 .def_128))) (let ((.def_160 (not .def_159))) (let ((.def_161 (and .def_160 .def_155))) (let ((.def_162 (or .def_161 .def_151))) (let ((.def_163 (and A5 A7))) (let ((.def_164 (not .def_163))) (let ((.def_165 (or .def_152 A1))) (let ((.def_166 (not .def_165))) (let ((.def_167 (and .def_166 .def_164))) (let ((.def_168 (or A3 .def_152))) (let ((.def_169 (+ .def_10 .def_46))) (let ((.def_170 (< .def_169 1))) (let ((.def_171 (not .def_170))) (let ((.def_172 (not .def_79))) (let ((.def_173 (= .def_172 .def_171))) (let ((.def_174 (not .def_173))) (let ((.def_175 (and .def_174 .def_168))) (let ((.def_176 (and .def_175 .def_167))) (let ((.def_177 (and .def_176 .def_162))) (let ((.def_178 (and .def_177 .def_145))) (let ((.def_179 (or .def_178 .def_104))) (let ((.def_180 (<= x9 1))) (let ((.def_181 (<= 0 x9))) (let ((.def_182 (<= x8 1))) (let ((.def_183 (<= 0 x8))) (let ((.def_184 (<= x7 1))) (let ((.def_185 (<= 0 x7))) (let ((.def_186 (<= x6 1))) (let ((.def_187 (<= 0 x6))) (let ((.def_188 (<= x5 1))) (let ((.def_189 (<= 0 x5))) (let ((.def_190 (<= x4 1))) (let ((.def_191 (<= 0 x4))) (let ((.def_192 (<= x3 1))) (let ((.def_193 (<= 0 x3))) (let ((.def_194 (<= x2 1))) (let ((.def_195 (<= 0 x2))) (let ((.def_196 (<= x1 1))) (let ((.def_197 (<= 0 x1))) (let ((.def_198 (<= x0 1))) (let ((.def_199 (<= 0 x0))) (let ((.def_200 (and .def_199 .def_198 .def_197 .def_196 .def_195 .def_194 .def_193 .def_192 .def_191 .def_190 .def_189 .def_188 .def_187 .def_186 .def_185 .def_184 .def_183 .def_182 .def_181 .def_180 .def_179))) .def_200))))))))))))))))))))))))))))))))))))))))))))))))))))))))))))))))))))))))))))))))))))))))))))))))))))))))))))))))))))))))))))))))))))))))))))))))))))))))))))))))))))))))))))))))))))))))))))))))))))))))))
(check-sat)
